src/asp/benchmarks/large4.lp
citta(perugia).
citta(assisi).
citta(terni).
citta(corciano).
citta(todi).
citta(castiglione_del_lago).
citta(orvieto).
citta(gubbio).
citta(marsciano).
citta(narni).
citta(magione).
citta(citta_di_castello).
citta(bastia_umbra).
citta(umbertide).
citta(gualdo_tardino).
citta(san_giustino).
citta(amelia).
citta(spoleto).
citta(foligno).

richiesta(perugia, strade, 90).
richiesta(perugia, fiumi, 60).
richiesta(perugia, scuole, 15).
richiesta(perugia, parchi, 205).
richiesta(perugia, energia, 101).

richiesta(assisi, strade, 222).
richiesta(assisi, fiumi, 196).
richiesta(assisi, scuole, 46).
richiesta(assisi, parchi, 215).
richiesta(assisi, energia, 287).

richiesta(terni, strade, 124).
richiesta(terni, fiumi, 87).
richiesta(terni, scuole, 29).
richiesta(terni, parchi, 82).
richiesta(terni, energia, 29).

richiesta(corciano, strade, 90).
richiesta(corciano, fiumi, 54).
richiesta(corciano, scuole, 16).
richiesta(corciano, parchi, 63).
richiesta(corciano, energia, 49).

richiesta(todi, strade, 290).
richiesta(todi, fiumi, 46).
richiesta(todi, scuole, 186).
richiesta(todi, parchi, 0).
richiesta(todi, energia, 45).

richiesta(castiglione_del_lago, strade, 64).
richiesta(castiglione_del_lago, fiumi, 515).
richiesta(castiglione_del_lago, scuole, 37).
richiesta(castiglione_del_lago, parchi, 78).
richiesta(castiglione_del_lago, energia, 128).

richiesta(orvieto, strade, 28).
richiesta(orvieto, fiumi, 33).
richiesta(orvieto, scuole, 236).
richiesta(orvieto, parchi, 16).
richiesta(orvieto, energia, 27).

richiesta(gubbio, strade, 211).
richiesta(gubbio, fiumi, 164).
richiesta(gubbio, scuole, 38).
richiesta(gubbio, parchi, 87).
richiesta(gubbio, energia, 93).

richiesta(marsciano, strade, 88).
richiesta(marsciano, fiumi, 342).
richiesta(marsciano, scuole, 360).
richiesta(marsciano, parchi, 112).
richiesta(marsciano, energia, 57).

richiesta(narni, strade, 73).
richiesta(narni, fiumi, 36).
richiesta(narni, scuole, 7).
richiesta(narni, parchi, 31).
richiesta(narni, energia, 234).

richiesta(magione, strade, 138).
richiesta(magione, fiumi, 242).
richiesta(magione, scuole, 49).
richiesta(magione, parchi, 52).
richiesta(magione, energia, 81).

richiesta(citta_di_castello, strade, 7).
richiesta(citta_di_castello, fiumi, 86).
richiesta(citta_di_castello, scuole, 33).
richiesta(citta_di_castello, parchi, 50).
richiesta(citta_di_castello, energia, 120).

richiesta(bastia_umbra, strade, 235).
richiesta(bastia_umbra, fiumi, 307).
richiesta(bastia_umbra, scuole, 61).
richiesta(bastia_umbra, parchi, 244).
richiesta(bastia_umbra, energia, 115).

richiesta(umbertide, strade, 2).
richiesta(umbertide, fiumi, 17).
richiesta(umbertide, scuole, 115).
richiesta(umbertide, parchi, 21).
richiesta(umbertide, energia, 19).

richiesta(gualdo_tardino, strade, 100).
richiesta(gualdo_tardino, fiumi, 41).
richiesta(gualdo_tardino, scuole, 4).
richiesta(gualdo_tardino, parchi, 31).
richiesta(gualdo_tardino, energia, 7).

richiesta(san_giustino, strade, 118).
richiesta(san_giustino, fiumi, 100).
richiesta(san_giustino, scuole, 34).
richiesta(san_giustino, parchi, 152).
richiesta(san_giustino, energia, 78).

richiesta(amelia, strade, 89).
richiesta(amelia, fiumi, 110).
richiesta(amelia, scuole, 52).
richiesta(amelia, parchi, 59).
richiesta(amelia, energia, 52).

richiesta(spoleto, strade, 121).
richiesta(spoleto, fiumi, 216).
richiesta(spoleto, scuole, 38).
richiesta(spoleto, parchi, 286).
richiesta(spoleto, energia, 214).

richiesta(foligno, strade, 65).
richiesta(foligno, fiumi, 178).
richiesta(foligno, scuole, 65).
richiesta(foligno, parchi, 11).
richiesta(foligno, energia, 21).

